p sp 100 140
a 1 11 1
a 1 2 1
a 2 1 1
a 2 3 1
a 3 13 1
a 3 2 1
a 7 8 1
a 8 7 1
a 11 1 1
a 13 3 1
a 13 23 1
a 22 32 1
a 22 23 1
a 23 13 1
a 23 33 1
a 23 22 1
a 23 24 1
a 24 34 1
a 24 23 1
a 27 37 1
a 27 28 1
a 28 38 1
a 28 27 1
a 28 29 1
a 29 39 1
a 29 28 1
a 29 30 1
a 30 40 1
a 30 29 1
a 31 41 1
a 31 32 1
a 32 22 1
a 32 42 1
a 32 31 1
a 32 33 1
a 33 23 1
a 33 32 1
a 33 34 1
a 34 24 1
a 34 33 1
a 34 35 1
a 35 45 1
a 35 34 1
a 37 27 1
a 37 47 1
a 37 38 1
a 38 28 1
a 38 48 1
a 38 37 1
a 38 39 1
a 39 29 1
a 39 38 1
a 39 40 1
a 40 30 1
a 40 39 1
a 41 31 1
a 41 51 1
a 41 42 1
a 42 32 1
a 42 41 1
a 45 35 1
a 45 55 1
a 45 46 1
a 46 45 1
a 46 47 1
a 47 37 1
a 47 57 1
a 47 46 1
a 47 48 1
a 48 38 1
a 48 58 1
a 48 47 1
a 51 41 1
a 51 61 1
a 54 64 1
a 54 55 1
a 55 45 1
a 55 65 1
a 55 54 1
a 57 47 1
a 57 67 1
a 57 58 1
a 58 48 1
a 58 57 1
a 58 59 1
a 59 69 1
a 59 58 1
a 59 60 1
a 60 70 1
a 60 59 1
a 61 51 1
a 63 64 1
a 64 54 1
a 64 74 1
a 64 63 1
a 64 65 1
a 65 55 1
a 65 64 1
a 67 57 1
a 67 77 1
a 69 59 1
a 69 70 1
a 70 60 1
a 70 80 1
a 70 69 1
a 74 64 1
a 74 84 1
a 77 67 1
a 77 87 1
a 80 70 1
a 80 90 1
a 82 83 1
a 83 82 1
a 83 84 1
a 84 74 1
a 84 83 1
a 86 96 1
a 86 87 1
a 87 77 1
a 87 97 1
a 87 86 1
a 87 88 1
a 88 87 1
a 88 89 1
a 89 99 1
a 89 88 1
a 89 90 1
a 90 80 1
a 90 100 1
a 90 89 1
a 95 96 1
a 96 86 1
a 96 95 1
a 96 97 1
a 97 87 1
a 97 96 1
a 99 89 1
a 99 100 1
a 100 90 1
a 100 99 1
